NAME : tsp_256_sol.txt
COMMENT : OR-Tools Guided Local Search
TYPE : TOUR
DIMENSION : 50
COST : 5756
STATUS : ROUTING_SUCCESS
GAP : 0.00% (Reference Solution)
TOUR_SECTION
1
3
12
47
21
27
24
14
49
33
29
10
42
35
20
41
43
16
37
8
50
7
32
31
23
19
18
48
17
25
4
45
38
15
34
26
39
46
44
9
28
30
2
11
40
13
36
5
6
22
-1
